NAME : portcgen-27-7
COMMENT : portcgen N=27, seed=7
TYPE : TSP
DIMENSION : 27
EDGE_WEIGHT_TYPE : EUC_2D
NODE_COORD_SECTION
1 122892 -173809
2 -52208 311578
3 150516 -57925
4 -231097 -243715
5 -325687 82971
6 -16707 -162952
7 -372748 -204906
8 178736 179367
9 -9679 -216843
10 746 -34995
11 123580 -22760
12 21857 -300597
13 -466489 154811
14 -284446 192308
15 361570 266200
16 -88847 118220
17 -66506 -232470
18 -30784 -207497
19 -384030 -96627
20 266740 -136113
21 53846 325695
22 -56146 -214007
23 137961 169045
24 20916 -150786
25 -164389 -18222
26 -4817 -154751
27 -353731 -157186
